50

96 6 288
93 3 296
86 17 263
86 0 297
85 21 266
83 13 253
80 10 274
80 17 286
80 14 272
79 23 271
77 6 232
68 11 221
67 21 286
64 3 275
64 2 207
63 9 228
60 18 269
57 13 226
55 17 274
54 3 254
54 0 193
54 9 250
54 9 239
52 9 281
52 1 294
52 14 227
51 5 236
44 6 227
43 4 200
41 11 294
41 12 278
39 8 260
39 3 243
39 3 299
38 3 145
36 0 291
36 4 116
35 2 152
34 2 285
34 2 188
31 3 120
31 3 297
29 4 169
29 0 289
28 6 263
24 2 128
23 3 201
22 1 109
22 0 166
20 1 260
